;  depth   = 3
;  nconst  = 5
;  assertions = 5
;  timeout = 2500
;  time    = {'smt_solvers/QF_S/z3str3/': 0.11296772956848145, 'smt_solvers/QF_S/cvc4/': 0.6791481971740723, 'smt_solvers/QF_S/z3seq/': 0.12276244163513184, 'smt_solvers/QF_S/z3str3fed/': 0.09683346748352051}
;  score   = 0.5563857555389404
;  stdout  = {'smt_solvers/QF_S/z3str3/': 'unsat', 'smt_solvers/QF_S/cvc4/': 'unsat', 'smt_solvers/QF_S/z3seq/': 'unsat', 'smt_solvers/QF_S/z3str3fed/': 'unsat'}
(set-logic ALL)(declare-fun var0 () String)(declare-fun var1 () String)(declare-fun var2 () String)(declare-fun var3 () String)(declare-fun var4 () String)(declare-fun var5 () Int)(declare-fun var6 () Int)(declare-fun var7 () Int)(declare-fun var8 () Int)(declare-fun var9 () Int)(declare-fun var10 () Bool)(declare-fun var11 () Bool)(declare-fun var12 () Bool)(declare-fun var13 () Bool)(declare-fun var14 () Bool)(assert (str.prefixof (str.substr (str.substr var3 var6 var7) (str.indexof var0 var2 var9) (str.indexof "]S0T-&j^{G" var3 var7)) (str.at (str.replace "CL`)DE:W[*" var3 var4) (str.indexof var0 var0 var7))))(assert (< (str.len var4) (str.indexof (str.replace var2 var4 "W81pLN_t>?") (str.at var2 var7) (str.len var2))))(assert (< (str.indexof var4 "|V9FJMUBT#" var6) (str.len var4)))(assert (str.in_re (str.replace var1 var2 var0) (re.+ (re.+ re.allchar))))(assert (< (str.indexof (str.at "pW=AndN@tB" var8) (str.substr var4 var5 var7) (str.len var2)) (str.indexof (str.at var0 var7) (str.replace var2 var4 var2) (str.len var2))))(check-sat)